0 0 0 0
0 1 0 0
0 2 0 8
0 3 0 0
0 4 0 8
0 5 0 31
0 6 0 17
0 7 0 11
0 8 0 54
0 9 0 17
0 10 0 11
0 11 0 25
0 12 0 2
0 13 0 35
0 14 0 17
0 15 0 13
0 16 0 27
0 17 0 43
0 18 0 55
0 19 0 30
0 20 0 7
0 21 0 42
0 22 0 27
0 23 0 14
0 24 0 25
0 25 0 53
0 26 0 70
0 27 0 33
0 28 0 57
0 29 0 31
0 30 0 60
0 31 0 53
0 32 0 34
0 33 0 43
0 34 0 70
0 35 0 69
0 36 0 88
0 37 0 35
0 38 0 52
0 39 0 78
0 40 0 76
0 41 0 16
0 42 0 80
0 43 0 96
0 44 0 57
0 45 0 104
0 46 0 80
0 47 0 65
0 48 0 97
0 49 0 103
0 50 0 63
0 51 0 90
0 52 0 108
0 53 0 60
0 54 0 72
0 55 0 86
0 56 0 98
0 57 0 98
0 58 0 105
0 59 0 105
0 60 0 112
0 61 0 114
